Route #1: 39 14 13 52 34 21 25
Route #2: 4 28 17 41 24 11 5 3
Route #3: 22 45 42 48 12 7 47
Route #4: 9 16 32 15 19 23 43 50 36 2 37
Route #5: 1 30 44 49 29 10 26 40 18 38
Route #6: 51 46 8 35 27
Route #7: 31 20 6 33
Cost 1010
Time 0.214955
Tempo = 0.22640880000108154